(assert (not (forall ((a1 Real) (b1 Real) (a2 Real) (b2 Real) (a3 Real) (b3 Real) (a4 Real) (b4 Real)) 
            (exists ((r Real) (s Real))
                (and 
                    (and (and (<= r 1) (>= r 0)) (and (<= s 1) (>= s 0)))
                    (and (forall ((rp Real)) 
                            (implies (and (<= rp 1) (>= rp 0))
                                (>=
                                    (+ (+ (+ (* a1 (* r s)) (* a2 (* r (- 1 s)))) (* a3 (* (- 1 r) s))) (* a4 (* (- 1 r) (- 1 s))))
                                    (+ (+ (+ (* a1 (* rp s)) (* a2 (* rp (- 1 s)))) (* a3 (* (- 1 rp) s))) (* a4 (* (- 1 rp) (- 1 s))))
                                )
                            )
                        ) (forall ((sp Real)) 
                            (implies (and (<= sp 1) (>= sp 0))
                                (>=
                                    (+ (+ (+ (* b1 (* r s)) (* b2 (* r (- 1 s)))) (* b3 (* (- 1 r) s))) (* b4 (* (- 1 r) (- 1 s))))
                                    (+ (+ (+ (* b1 (* r sp)) (* b2 (* r (- 1 sp)))) (* b3 (* (- 1 r) sp))) (* b4 (* (- 1 r) (- 1 sp))))
                                )
                            )
                        )
                    )
                )
        )
    ))
)
(check-sat)